Minimize
  - 11 y_0 - 16 y_2 - 8 y_3 - 3 y_4 - 8 y_5 - 7 y_6 - 6 y_7 - 9 y_8 - 9 y_9
   - 14 y_10 - 11 y_11 - 12 y_12 - 17 y_13 - 15 y_14 - 7 y_15 - 10 y_16
   - 11 y_17 - 12 y_18 - 11 y_19 + 46 x_0_1 + 93 x_0_2 + 74 x_0_3
   + 36 x_0_4 + 17 x_0_6 + 41 x_0_7 + 10 x_0_8 + 73 x_0_11 + 91 x_0_14
   + 34 x_0_15 + 73 x_0_19 + 62 x_1_2 + 31 x_1_3 + 11 x_1_4 + 33 x_1_5
   + 30 x_1_6 + 36 x_1_8 + 54 x_1_10 + 42 x_1_11 + 46 x_1_12 + 60 x_1_14
   + 30 x_1_15 + 45 x_1_17 + 47 x_1_18 + 45 x_1_19 + 71 x_2_4 + 75 x_2_5
   + 83 x_2_6 + 87 x_2_8 + 116 x_2_10 + 18 x_2_12 + 131 x_2_13 + 3 x_2_14
   + 60 x_2_15 + 101 x_2_16 + 18 x_2_17 + 69 x_2_18 + 100 x_2_19 + 38 x_3_4
   + 63 x_3_5 + 57 x_3_6 + 38 x_3_7 + 65 x_3_9 + 59 x_3_10 + 75 x_3_13
   + 19 x_3_18 + 31 x_3_19 + 26 x_4_5 + 20 x_4_6 + 18 x_4_7 + 26 x_4_8
   + 27 x_4_9 + 48 x_4_10 + 44 x_4_11 + 61 x_4_13 + 68 x_4_14 + 32 x_4_16
   + 56 x_4_18 + 46 x_4_19 + 39 x_5_7 + 15 x_5_8 + 16 x_5_9 + 64 x_5_12
   + 71 x_5_13 + 15 x_5_15 + 57 x_5_17 + 80 x_5_18 + 70 x_5_19 + 26 x_6_7
   + 6 x_6_8 + 7 x_6_9 + 48 x_6_10 + 57 x_6_11 + 70 x_6_12 + 56 x_6_13
   + 33 x_6_16 + 65 x_6_17 + 58 x_6_19 + 31 x_7_8 + 32 x_7_9 + 32 x_7_11
   + 70 x_7_12 + 84 x_7_14 + 45 x_7_15 + 14 x_7_16 + 57 x_7_18 + 75 x_8_12
   + 85 x_8_14 + 30 x_8_15 + 82 x_8_18 + 63 x_8_19 + 50 x_9_10 + 64 x_9_11
   + 56 x_9_13 + 86 x_9_14 + 31 x_9_15 + 36 x_9_16 + 71 x_9_17 + 83 x_9_18
   + 64 x_9_19 + 37 x_10_11 + 114 x_10_14 + 73 x_10_15 + 16 x_10_16
   + 100 x_10_17 + 34 x_10_19 + 78 x_11_12 + 53 x_11_13 + 93 x_11_14
   + 71 x_11_15 + 34 x_11_16 + 81 x_11_17 + 114 x_12_13 + 16 x_12_14
   + 50 x_12_15 + 53 x_12_18 + 82 x_12_19 + 128 x_13_14 + 83 x_13_15
   + 29 x_13_16 + 92 x_13_18 + 99 x_14_16 + 15 x_14_17 + 67 x_14_18
   + 57 x_15_16 + 42 x_15_17 + 74 x_15_18 + 73 x_15_19 + 84 x_16_17
   + 67 x_16_18 + 32 x_16_19 + 61 x_17_18 + 85 x_17_19 + 197 Constant
Subject To
 c_0: y_0 = 1
 c_1_0: y_0 >= 1
 c_1_1: y_1 >= 1
 c_1_2: y_2 + y_14 >= 1
 c_1_3: y_3 >= 1
 c_1_4: y_4 >= 1
 c_1_5: y_5 >= 1
 c_1_6: y_6 + y_8 + y_9 >= 1
 c_1_7: y_7 >= 1
 c_1_8: y_6 + y_8 + y_9 >= 1
 c_1_9: y_6 + y_8 + y_9 >= 1
 c_1_10: y_10 >= 1
 c_1_11: y_11 + y_19 >= 1
 c_1_12: y_12 >= 1
 c_1_13: y_13 >= 1
 c_1_14: y_2 + y_14 >= 1
 c_1_15: y_15 >= 1
 c_1_16: y_16 >= 1
 c_1_17: y_17 >= 1
 c_1_18: y_18 >= 1
 c_1_19: y_11 + y_19 >= 1
 c_2_0: - 2 y_0 + x_0_1 + x_0_2 + x_0_3 + x_0_4 + x_0_6 + x_0_7 + x_0_8
   + x_0_11 + x_0_14 + x_0_15 + x_0_19 = 0
 c_2_1: - 2 y_1 + x_0_1 + x_1_2 + x_1_3 + x_1_4 + x_1_5 + x_1_6 + x_1_8
   + x_1_10 + x_1_11 + x_1_12 + x_1_14 + x_1_15 + x_1_17 + x_1_18 + x_1_19
   = 0
 c_2_2: - 2 y_2 + x_0_2 + x_1_2 + x_2_4 + x_2_5 + x_2_6 + x_2_8 + x_2_10
   + x_2_12 + x_2_13 + x_2_14 + x_2_15 + x_2_16 + x_2_17 + x_2_18 + x_2_19
   = 0
 c_2_3: - 2 y_3 + x_0_3 + x_1_3 + x_3_4 + x_3_5 + x_3_6 + x_3_7 + x_3_9
   + x_3_10 + x_3_13 + x_3_18 + x_3_19 = 0
 c_2_4: - 2 y_4 + x_0_4 + x_1_4 + x_2_4 + x_3_4 + x_4_5 + x_4_6 + x_4_7
   + x_4_8 + x_4_9 + x_4_10 + x_4_11 + x_4_13 + x_4_14 + x_4_16 + x_4_18
   + x_4_19 = 0
 c_2_5: - 2 y_5 + x_1_5 + x_2_5 + x_3_5 + x_4_5 + x_5_7 + x_5_8 + x_5_9
   + x_5_12 + x_5_13 + x_5_15 + x_5_17 + x_5_18 + x_5_19 = 0
 c_2_6: - 2 y_6 + x_0_6 + x_1_6 + x_2_6 + x_3_6 + x_4_6 + x_6_7 + x_6_8
   + x_6_9 + x_6_10 + x_6_11 + x_6_12 + x_6_13 + x_6_16 + x_6_17 + x_6_19
   = 0
 c_2_7: - 2 y_7 + x_0_7 + x_3_7 + x_4_7 + x_5_7 + x_6_7 + x_7_8 + x_7_9
   + x_7_11 + x_7_12 + x_7_14 + x_7_15 + x_7_16 + x_7_18 = 0
 c_2_8: - 2 y_8 + x_0_8 + x_1_8 + x_2_8 + x_4_8 + x_5_8 + x_6_8 + x_7_8
   + x_8_12 + x_8_14 + x_8_15 + x_8_18 + x_8_19 = 0
 c_2_9: - 2 y_9 + x_3_9 + x_4_9 + x_5_9 + x_6_9 + x_7_9 + x_9_10 + x_9_11
   + x_9_13 + x_9_14 + x_9_15 + x_9_16 + x_9_17 + x_9_18 + x_9_19 = 0
 c_2_10: - 2 y_10 + x_1_10 + x_2_10 + x_3_10 + x_4_10 + x_6_10 + x_9_10
   + x_10_11 + x_10_14 + x_10_15 + x_10_16 + x_10_17 + x_10_19 = 0
 c_2_11: - 2 y_11 + x_0_11 + x_1_11 + x_4_11 + x_6_11 + x_7_11 + x_9_11
   + x_10_11 + x_11_12 + x_11_13 + x_11_14 + x_11_15 + x_11_16 + x_11_17
   = 0
 c_2_12: - 2 y_12 + x_1_12 + x_2_12 + x_5_12 + x_6_12 + x_7_12 + x_8_12
   + x_11_12 + x_12_13 + x_12_14 + x_12_15 + x_12_18 + x_12_19 = 0
 c_2_13: - 2 y_13 + x_2_13 + x_3_13 + x_4_13 + x_5_13 + x_6_13 + x_9_13
   + x_11_13 + x_12_13 + x_13_14 + x_13_15 + x_13_16 + x_13_18 = 0
 c_2_14: - 2 y_14 + x_0_14 + x_1_14 + x_2_14 + x_4_14 + x_7_14 + x_8_14
   + x_9_14 + x_10_14 + x_11_14 + x_12_14 + x_13_14 + x_14_16 + x_14_17
   + x_14_18 = 0
 c_2_15: - 2 y_15 + x_0_15 + x_1_15 + x_2_15 + x_5_15 + x_7_15 + x_8_15
   + x_9_15 + x_10_15 + x_11_15 + x_12_15 + x_13_15 + x_15_16 + x_15_17
   + x_15_18 + x_15_19 = 0
 c_2_16: - 2 y_16 + x_2_16 + x_4_16 + x_6_16 + x_7_16 + x_9_16 + x_10_16
   + x_11_16 + x_13_16 + x_14_16 + x_15_16 + x_16_17 + x_16_18 + x_16_19
   = 0
 c_2_17: - 2 y_17 + x_1_17 + x_2_17 + x_5_17 + x_6_17 + x_9_17 + x_10_17
   + x_11_17 + x_14_17 + x_15_17 + x_16_17 + x_17_18 + x_17_19 = 0
 c_2_18: - 2 y_18 + x_1_18 + x_2_18 + x_3_18 + x_4_18 + x_5_18 + x_7_18
   + x_8_18 + x_9_18 + x_12_18 + x_13_18 + x_14_18 + x_15_18 + x_16_18
   + x_17_18 = 0
 c_2_19: - 2 y_19 + x_0_19 + x_1_19 + x_2_19 + x_3_19 + x_4_19 + x_5_19
   + x_6_19 + x_8_19 + x_9_19 + x_10_19 + x_12_19 + x_15_19 + x_16_19
   + x_17_19 = 0
Bounds
 Constant = 1
Binaries
 y_0 y_1 y_2 y_3 y_4 y_5 y_6 y_7 y_8 y_9 y_10 y_11 y_12 y_13 y_14 y_15 y_16
 y_17 y_18 y_19 x_0_1 x_0_2 x_0_3 x_0_4 x_0_6 x_0_7 x_0_8 x_0_11 x_0_14
 x_0_15 x_0_19 x_1_2 x_1_3 x_1_4 x_1_5 x_1_6 x_1_8 x_1_10 x_1_11 x_1_12
 x_1_14 x_1_15 x_1_17 x_1_18 x_1_19 x_2_4 x_2_5 x_2_6 x_2_8 x_2_10 x_2_12
 x_2_13 x_2_14 x_2_15 x_2_16 x_2_17 x_2_18 x_2_19 x_3_4 x_3_5 x_3_6 x_3_7
 x_3_9 x_3_10 x_3_13 x_3_18 x_3_19 x_4_5 x_4_6 x_4_7 x_4_8 x_4_9 x_4_10
 x_4_11 x_4_13 x_4_14 x_4_16 x_4_18 x_4_19 x_5_7 x_5_8 x_5_9 x_5_12 x_5_13
 x_5_15 x_5_17 x_5_18 x_5_19 x_6_7 x_6_8 x_6_9 x_6_10 x_6_11 x_6_12 x_6_13
 x_6_16 x_6_17 x_6_19 x_7_8 x_7_9 x_7_11 x_7_12 x_7_14 x_7_15 x_7_16 x_7_18
 x_8_12 x_8_14 x_8_15 x_8_18 x_8_19 x_9_10 x_9_11 x_9_13 x_9_14 x_9_15
 x_9_16 x_9_17 x_9_18 x_9_19 x_10_11 x_10_14 x_10_15 x_10_16 x_10_17
 x_10_19 x_11_12 x_11_13 x_11_14 x_11_15 x_11_16 x_11_17 x_12_13 x_12_14
 x_12_15 x_12_18 x_12_19 x_13_14 x_13_15 x_13_16 x_13_18 x_14_16 x_14_17
 x_14_18 x_15_16 x_15_17 x_15_18 x_15_19 x_16_17 x_16_18 x_16_19 x_17_18
 x_17_19
End
